NAME: ftv33
TYPE: ATSP
COMMENT: Asymmetric TSP (Fischetti)
DIMENSION: 4
EDGE_WEIGHT_TYPE: EXPLICIT
EDGE_WEIGHT_FORMAT: FULL_MATRIX 
EDGE_WEIGHT_SECTION
   100000000	2	7	3	7	100000000	8	5	9	4	100000000	6	3	8	5	100000000
EOF
